10

4
3
5 2 0 1
7 2 1 2 
1 3 1 2 3

4
4
1 2 0 1
9 2 0 3
3 2 0 2
4 2 0 3

4
4
1 2 0 2
2 2 0 3
3 2 1 2
4 2 1 3

6
5
3 3 0 1 2
3 3 0 3 4
3 3 2 3 5 
2 2 1 5 
1 1 4 
  
7
5
3 3 0 1 2
3 3 0 3 4
4 4 2 3 5 6
2 2 1 5 
3 2 4 6 
  
8
5
3 3 0 1 2
3 3 0 3 4
4 4 2 3 5 6
3 3 1 5 7
3 3 4 6 7

8
5
1 3 0 1 2
1 3 0 3 4
1 4 2 3 5 6
1 3 1 5 7
1 3 4 6 7

9
5
1 3 0 1 2
1 3 0 3 4
1 4 2 3 5 6
1 3 1 5 7
1 4 4 6 7 8

10
5
5 5 0 1 2 3 4
6 6 0 1 2 7 8 9 
1 3 3 4 6
3 3 4 5 6
2 5 5 6 7 8 9

12
6
6 6 0 1 2 3 4 5 
4 4 0 3 6 9                 
5 5 1 4 6 7 10 
4 4 2 5 8 11
4 4 4 5 7 8 
2 2 9 10



